Problem:    
Rows:       113
Columns:    45 (34 integer, 34 binary)
Non-zeros:  350
Status:     INTEGER OPTIMAL
Objective:  value = 8.421629 (MINimum)

   No.   Row name        Activity     Lower bound   Upper bound
------ ------------    ------------- ------------- -------------
     1 r.5                   8.42163             0               
     2 r.6                   8.42163      -1022.25               
     3 r.7                   1032.42             0               
     4 r.8                  -1020.79      -1020.86               
     5 r.9                   1032.42             0               
     6 r.10                 -1015.58      -1022.72               
     7 r.11                  8.42163             0               
     8 r.12                  8.42163      -1021.92               
     9 r.13                  8.42163             0               
    10 r.14                  8.42163      -1020.48               
    11 r.15                  1032.42             0               
    12 r.16                 -1015.58      -1018.79               
    13 r.17                  1032.42             0               
    14 r.18                 -1016.86      -1018.34               
    15 r.19                  8.42163             0               
    16 r.20                  8.42163      -1015.33               
    17 r.21                  1032.42             0               
    18 r.22                 -1023.93      -1023.93               
    19 r.23                  8.42163             0               
    20 r.24                   0.0707      -1022.86               
    21 r.25                        1             1             = 
    22 r.26                        1             1             = 
    23 r.27                        1             1             = 
    24 r.28                        1             1             = 
    25 r.29                        1             1             = 
    26 r.30                     1025             2               
    27 r.31                    -1025         -1025               
    28 r.32                     2048      -1022.72               
    29 r.33                     1025             2               
    30 r.34                    -1025         -1025               
    31 r.35                  2053.21      -1021.92               
    32 r.36                     1024             2               
    33 r.37                    -1024         -1025               
    34 r.38                     2048      -1020.48               
    35 r.39                        2             2               
    36 r.40                       -2         -1025               
    37 r.41                 -1018.79      -1018.79               
    38 r.42                     1025             2               
    39 r.43                    -1025         -1025               
    40 r.44                  2046.72      -1018.34               
    41 r.45                     1025             2               
    42 r.46                    -1025         -1025               
    43 r.47                  2053.21      -1015.33               
    44 r.48                  8.35093      -1022.25               
    45 r.49                 -1020.86      -1020.86               
    46 r.50                  8.35093      -1022.25               
    47 r.51                 -1020.86      -1020.86               
    48 r.52                     1025             2               
    49 r.53                    -1025         -1025               
    50 r.54                     2048         1.745               
    51 r.55                     1025             2               
    52 r.56                    -1025         -1025               
    53 r.57                  2042.79        3.1385               
    54 r.58                     1025             2               
    55 r.59                    -1025         -1025               
    56 r.60                     2048      -1020.48               
    57 r.61                     1025             2               
    58 r.62                    -1025         -1025               
    59 r.63                     2048      -1018.79               
    60 r.64                        2             2               
    61 r.65                       -2         -1025               
    62 r.66                  -1.2835      -1018.34               
    63 r.67                     1024             2               
    64 r.68                    -1024         -1025               
    65 r.69                     2048      -1015.33               
    66 r.70                 -1015.65      -1022.72               
    67 r.71                  8.35093      -1021.92               
    68 r.72                 -1015.65      -1022.72               
    69 r.73                  8.35093      -1021.92               
    70 r.74                     1024             2               
    71 r.75                    -1024         -1025               
    72 r.76                     2048         1.745               
    73 r.77                        2             2               
    74 r.78                       -2         -1025               
    75 r.79                  1018.79        3.1385               
    76 r.80                     1025             2               
    77 r.81                    -1025         -1025               
    78 r.82                     2048        1.2835               
    79 r.83                     1025             2               
    80 r.84                    -1025         -1025               
    81 r.85                     2048       2.07863               
    82 r.86                     1025             2               
    83 r.87                    -1025         -1025               
    84 r.88                  2046.72      -1018.34               
    85 r.89                     1025             2               
    86 r.90                    -1025         -1025               
    87 r.91                     2048      -1015.33               
    88 r.92                  8.35093      -1020.48               
    89 r.93                 -1015.65      -1018.79               
    90 r.94                  8.35093      -1020.48               
    91 r.95                 -1015.65      -1018.79               
    92 r.96                     1025             2               
    93 r.97                    -1025         -1025               
    94 r.98                  2049.28         1.745               
    95 r.99                     1025             2               
    96 r.100                   -1025         -1025               
    97 r.101                 2042.79        3.1385               
    98 r.102                       2             2               
    99 r.103                      -2         -1025               
   100 r.104                  1.2835        1.2835               
   101 r.105                    1024             2               
   102 r.106                   -1024         -1025               
   103 r.107                    2048       2.07863               
   104 r.108                    1025             2               
   105 r.109                   -1025         -1025               
   106 r.110                 2049.28        3.5176               
   107 r.111                    1025             2               
   108 r.112                   -1025         -1025               
   109 r.113                    2048       5.21243               
   110 r.114                -1016.93      -1018.34               
   111 r.115                 8.35093      -1015.33               
   112 r.116                -1016.93      -1018.34               
   113 r.117                 8.35093      -1015.33               

   No. Column name       Activity     Lower bound   Upper bound
------ ------------    ------------- ------------- -------------
     1 tt                    8.42163             0               
     2 s_1_1        *              0             0             1 
     3 t_1_1                       0             0               
     4 s_2_1        *              1             0             1 
     5 t_2_1                 5.21243             0               
     6 s_1_2        *              1             0             1 
     7 t_1_2                       0             0               
     8 s_2_2        *              0             0             1 
     9 t_2_2                       0             0               
    10 s_1_3        *              0             0             1 
    11 t_1_3                       0             0               
    12 s_2_3        *              1             0             1 
    13 t_2_3                       0             0               
    14 s_1_4        *              1             0             1 
    15 t_1_4                  1.2835             0               
    16 s_2_4        *              0             0             1 
    17 t_2_4                       0             0               
    18 s_1_5        *              1             0             1 
    19 t_1_5                 8.35093             0               
    20 s_2_5        *              0             0             1 
    21 t_2_5                 8.35093             0               
    22 r_1_1_2      *              1             0             1 
    23 u_1_1_2      *              0             0             1 
    24 r_2_1_2      *              1             0             1 
    25 u_2_1_2      *              0             0             1 
    26 r_1_1_3      *              1             0             1 
    27 u_1_1_3      *              0             0             1 
    28 r_2_1_3      *              0             0             1 
    29 u_2_1_3      *              1             0             1 
    30 r_1_1_4      *              1             0             1 
    31 u_1_1_4      *              0             0             1 
    32 r_2_1_4      *              1             0             1 
    33 u_2_1_4      *              0             0             1 
    34 r_1_2_3      *              1             0             1 
    35 u_1_2_3      *              0             0             1 
    36 r_2_2_3      *              1             0             1 
    37 u_2_2_3      *              0             0             1 
    38 r_1_2_4      *              0             0             1 
    39 u_1_2_4      *              0             0             1 
    40 r_2_2_4      *              1             0             1 
    41 u_2_2_4      *              0             0             1 
    42 r_1_3_4      *              1             0             1 
    43 u_1_3_4      *              0             0             1 
    44 r_2_3_4      *              1             0             1 
    45 u_2_3_4      *              0             0             1 

Integer feasibility conditions:

KKT.PE: max.abs.err = 0.00e+00 on row 0
        max.rel.err = 0.00e+00 on row 0
        High quality

KKT.PB: max.abs.err = 0.00e+00 on row 0
        max.rel.err = 0.00e+00 on row 0
        High quality

End of output
